id: 255
name: baxter
group: meszaros/misc
method: 2

Gurobi 7.0.2 (linux64, Matlab) logging started Mon Mar 26 10:08:38 2018


Gurobi 7.0.2 (linux64) logging started Mon Mar 26 10:08:38 2018

Optimize a model with 27441 rows, 15128 columns and 95971 nonzeros
Coefficient statistics:
  Matrix range     [1e-03, 3e+05]
  Objective range  [1e-01, 5e+03]
  Bounds range     [1e+00, 1e+00]
  RHS range        [1e+00, 1e+05]
Presolve removed 8584 rows and 4396 columns
Presolve time: 0.04s
Presolved: 18857 rows, 10732 columns, 78427 nonzeros

Ordering time: 0.33s

Barrier statistics:
 Dense cols : 52
 AA' NZ     : 5.677e+05
 Factor NZ  : 4.018e+06 (roughly 40 MBytes of memory)
 Factor Ops : 2.317e+09 (less than 1 second per iteration)
 Threads    : 4

                  Objective                Residual
Iter       Primal          Dual         Primal    Dual     Compl     Time
   0   2.20444245e+10 -6.50892378e+06  5.28e+03 0.00e+00  1.19e+06     0s
   1   1.52477392e+10 -2.40156007e+07  3.61e+03 7.08e+02  7.85e+05     1s
   2   2.41094377e+09 -2.06196528e+07  4.71e+02 1.78e+02  1.25e+05     1s
   3   4.03837706e+08  2.74165901e+06  7.16e+01 2.10e+01  1.96e+04     1s
   4   2.31863740e+08  1.79054091e+07  3.47e+01 7.62e-01  9.81e+03     1s
   5   1.84910177e+08  2.59646797e+07  2.57e+01 3.30e-01  7.01e+03     1s
   6   1.37141112e+08  2.92497909e+07  1.58e+01 2.55e-01  4.64e+03     1s
   7   1.24298100e+08  3.43488018e+07  1.32e+01 1.86e-01  3.77e+03     1s
   8   1.10843781e+08  3.55613268e+07  1.05e+01 1.87e-01  3.13e+03     1s
   9   9.98923241e+07  3.99257214e+07  8.28e+00 1.64e-01  2.42e+03     1s
  10   9.16196435e+07  4.38552173e+07  6.59e+00 1.26e-01  1.87e+03     1s
  11   8.48596212e+07  4.57634534e+07  5.21e+00 1.07e-01  1.50e+03     1s
  12   8.07786572e+07  4.82139650e+07  4.40e+00 8.08e-02  1.22e+03     1s
  13   7.41981869e+07  5.06537442e+07  3.11e+00 5.04e-02  8.55e+02     1s
  14   7.20414149e+07  5.19103428e+07  2.71e+00 3.41e-02  7.18e+02     1s
  15   6.84041397e+07  5.34363453e+07  2.04e+00 2.51e-02  5.21e+02     1s
  16   6.45349720e+07  5.44697391e+07  1.35e+00 1.81e-02  3.45e+02     1s
  17   6.23371267e+07  5.54111458e+07  9.89e-01 8.77e-03  2.31e+02     1s
  18   5.94108024e+07  5.56582444e+07  5.15e-01 5.69e-03  1.25e+02     1s
  19   5.85771484e+07  5.58352940e+07  3.84e-01 3.05e-03  9.11e+01     1s
  20   5.78184367e+07  5.58992897e+07  2.68e-01 1.41e-03  6.39e+01     1s
  21   5.75581621e+07  5.59252767e+07  2.29e-01 1.09e-03  5.43e+01     1s
  22   5.66048896e+07  5.59574818e+07  8.59e-02 1.77e-04  2.18e+01     2s
  23   5.63065821e+07  5.59732640e+07  4.21e-02 7.99e-05  1.13e+01     2s
  24   5.61259280e+07  5.59906624e+07  1.59e-02 4.18e-05  4.62e+00     2s
  25   5.60617248e+07  5.60000517e+07  7.16e-03 1.63e-05  2.11e+00     2s
  26   5.60502937e+07  5.60058645e+07  5.65e-03 6.05e-09  1.50e+00     2s
  27   5.60163927e+07  5.60067998e+07  1.08e-03 1.40e-08  3.30e-01     2s
  28   5.60074627e+07  5.60072221e+07  1.98e-05 3.35e-08  8.55e-03     2s
  29   5.60072559e+07  5.60072556e+07  1.94e-07 5.59e-09  1.03e-05     2s
  30   5.60072559e+07  5.60072556e+07  1.32e-06 5.55e-04  8.54e-06     2s

Barrier solved model in 30 iterations and 1.93 seconds
Optimal objective 5.60072559e+07

Crossover log...

       0 DPushes remaining with DInf 3.5227638e-08                 2s

     327 PPushes remaining with PInf 8.1129467e-04                 2s
       0 PPushes remaining with PInf 0.0000000e+00                 2s

  Push phase complete: Pinf 0.0000000e+00, Dinf 5.6316893e+04      2s

Iteration    Objective       Primal Inf.    Dual Inf.      Time
    5981    5.6007256e+07   0.000000e+00   5.631689e+04      2s
    6019    5.6007256e+07   0.000000e+00   0.000000e+00      2s

Solved in 6019 iterations and 1.98 seconds
Optimal objective  5.600725567e+07
status: OPTIMAL
